 &inputhp
   prefix ='bUPtSe2',
   outdir ='.//lscratch.bUPtSe2',
   nq1 = 4, nq2 = 4, nq3 = 1,
   conv_thr_chi = 1.0d-7,
   iverbosity = 2
 /

