&control
  calculation='scf',
  verbosity='high',
  restart_mode='from_scratch',
        prefix          =       'bUPtSe2',
        pseudo_dir      =       './',
        outdir          =       './/lscratch.bUPtSe2',
        wf_collect=.true.
/
&SYSTEM
   ibrav=0,
   celldm(1)=  7.10725995
   nat=3
   ntyp=2,
   ecutwfc=110, 
   occupations='smearing',smearing='mp'
   degauss=0.008,
/
&electrons
    mixing_beta= 0.2
    conv_thr=  1.0d-8
    electron_maxstep= 3000
/
&IONS
/
ATOMIC_SPECIES
Pt  195.084  Pt.upf
Se  78.96    Se.upf

ATOMIC_POSITIONS (crystal)
Pt           -0.0000000000       -0.0000000000        0.0000000000
Se            0.6666670000        0.3333330000        0.7340285922
Se            0.3333330000        0.6666670000        0.2659714078
K_POINTS automatic
13 13 11   0 0 0


CELL_PARAMETERS alat
   0.990948388  -0.000000000  -0.000000000
  -0.495474194   0.858186478  -0.000000000
  -0.000000000  -0.000000000   1.333871772

HUBBARD {ortho-atomic}
U Pt-5d 0.0001

